NAME : lc105.828937.tour
COMMENT : Cost = 0_828937
COMMENT : Found by LKH [Keld Helsgaun] Fri Sep 15 17:42:00 2017
TYPE : TOUR
DIMENSION : 116
TOUR_SECTION
1
82
79
77
72
71
74
78
80
103
81
108
14
18
19
20
16
17
15
13
116
21
25
26
28
30
31
29
27
24
107
23
22
113
99
97
96
95
93
94
98
101
100
106
114
91
88
87
84
83
85
86
89
90
92
111
6
4
8
9
11
12
10
7
5
3
2
76
115
33
34
32
36
38
39
40
37
35
102
110
44
43
42
41
45
47
46
49
52
51
53
105
50
48
109
58
56
55
54
57
59
61
60
112
68
66
104
64
63
75
73
62
65
69
67
70
-1
EOF
